row=6;
column=6;
left=[0, 11, 0, 0, 0, 6];
right=[9, 10, 9, 11, 0, 13];
top=[14, 15, 11, 6, 0, 0];
bottom=[0, 0, 0, 14, 11, 8];
Board=[|3,0,5,0,0,0|0,2,6,1,0,0|0,0,0,0,0,0|4,0,0,0,0,5|0,0,1,5,4,0|0,0,0,0,0,0|]